NAME : amtsp
TYPE : ATSP
DIMENSION : 11
EDGE_WEIGHT_TYPE : EXPLICIT
EDGE_WEIGHT_FORMAT : FULL_MATRIX
EDGE_WEIGHT_SECTION
100000 -100000 100000 100000 100000 100000 100000 100000 100000 100000 100000 
100000 100000 2052 169 406 520 1726 1579 1573 1729 660 
0 0 100000 2269 2572 2506 2504 2141 684 424 395 
0 0 2269 100000 -262 363 584 578 646 796 775 
0 0 2572 -262 100000 231 466 606 703 958 1045 
0 0 2506 363 231 100000 -264 -147 602 857 998 
0 0 2504 584 466 -264 100000 -244 504 758 1067 
0 0 2141 578 606 -147 -244 100000 252 510 759 
0 0 684 646 703 602 504 252 100000 -240 -101 
0 0 424 796 958 857 758 510 -240 100000 -248 
0 0 395 775 1045 998 1067 759 -101 -248 100000 
